objective value:                                    0
z[10]                                               1 	(obj:0)
z[15]                                               1 	(obj:0)
r[11,0,9]                                         5.2 	(obj:0)
r[11,1,9]                            16.4896997027775 	(obj:0)
r[11,0,10]                                      1.768 	(obj:0)
r[11,1,10]                                       4.59 	(obj:0)
r[12,0,0]                                          26 	(obj:0)
r[12,1,0]                                          54 	(obj:0)
r[12,0,1]                                     21.6565 	(obj:0)
r[12,1,1]                                     50.0988 	(obj:0)
r[12,0,2]                                  17.5171445 	(obj:0)
r[12,1,2]                                 46.29239916 	(obj:0)
r[12,0,3]                               13.5723387085 	(obj:0)
r[12,1,3]                             42.578493860412 	(obj:0)
r[12,0,4]                            9.81293878920049 	(obj:0)
r[12,1,4]                             38.954836459604 	(obj:0)
r[12,0,5]                            6.23023066610807 	(obj:0)
r[12,1,5]                            29.2118653406247 	(obj:0)
r[12,0,6]                            3.46118980936312 	(obj:0)
r[12,1,6]                            25.9130170128475 	(obj:0)
r[12,0,7]                            3.29851388832306 	(obj:0)
r[12,1,7]                            22.6943306994353 	(obj:0)
r[12,0,8]                            3.14348373557187 	(obj:0)
r[12,1,8]                            19.5538584634391 	(obj:0)
r[12,0,9]                                       1.872 	(obj:0)
r[12,1,9]                            16.4896997027775 	(obj:0)
r[13,0,0]                                          26 	(obj:0)
r[13,1,0]                                          54 	(obj:0)
r[13,0,1]                                     21.6565 	(obj:0)
r[13,1,1]                                     50.0988 	(obj:0)
r[13,0,2]                                  17.5171445 	(obj:0)
r[13,1,2]                                 46.29239916 	(obj:0)
r[13,0,3]                               13.5723387085 	(obj:0)
r[13,1,3]                             42.578493860412 	(obj:0)
r[13,0,4]                            9.81293878920049 	(obj:0)
r[13,1,4]                             38.954836459604 	(obj:0)
r[13,0,5]                            6.23023066610807 	(obj:0)
r[13,1,5]                            29.2118653406247 	(obj:0)
r[13,0,6]                            2.81590982480099 	(obj:0)
r[13,1,6]                            25.9130170128475 	(obj:0)
r[13,1,7]                            22.6943306994353 	(obj:0)
r[13,1,8]                            19.5538584634391 	(obj:0)
r[13,1,9]                            16.4896997027775 	(obj:0)
r[14,0,0]                                          26 	(obj:0)
r[14,1,0]                                          54 	(obj:0)
r[14,0,1]                                     21.6565 	(obj:0)
r[14,1,1]                                     50.0988 	(obj:0)
r[14,0,2]                                  17.5171445 	(obj:0)
r[14,1,2]                                 46.29239916 	(obj:0)
r[14,0,3]                               13.5723387085 	(obj:0)
r[14,1,3]                             42.578493860412 	(obj:0)
r[14,0,4]                            9.81293878920049 	(obj:0)
r[14,1,4]                             38.954836459604 	(obj:0)
r[14,0,5]                            6.23023066610807 	(obj:0)
r[14,1,5]                            29.2118653406247 	(obj:0)
r[14,0,6]                            2.81590982480099 	(obj:0)
r[14,1,6]                            25.9130170128475 	(obj:0)
r[14,1,7]                            22.6943306994353 	(obj:0)
r[14,1,8]                            19.5538584634391 	(obj:0)
r[14,1,9]                            16.4896997027775 	(obj:0)
r[15,0,0]                                          26 	(obj:0)
r[15,1,0]                                          54 	(obj:0)
r[15,0,1]                                     21.6565 	(obj:0)
r[15,1,1]                                     50.0988 	(obj:0)
r[15,0,2]                                  17.5171445 	(obj:0)
r[15,1,2]                                 46.29239916 	(obj:0)
r[15,0,3]                               13.5723387085 	(obj:0)
r[15,1,3]                             42.578493860412 	(obj:0)
r[15,0,4]                            9.81293878920049 	(obj:0)
r[15,1,4]                             38.954836459604 	(obj:0)
r[15,0,5]                            6.23023066610807 	(obj:0)
r[15,1,5]                            29.2118653406247 	(obj:0)
r[15,0,6]                            2.81590982480099 	(obj:0)
r[15,1,6]                            25.9130170128475 	(obj:0)
r[15,0,7]                             4.9885913321972 	(obj:0)
r[15,1,7]                            22.6943306994353 	(obj:0)
r[15,0,8]                            6.89343734128593 	(obj:0)
r[15,1,8]                            19.5538584634391 	(obj:0)
r[15,0,9]                            5.12357458115027 	(obj:0)
r[15,1,9]                            16.4896997027775 	(obj:0)
r[16,0,0]                                          26 	(obj:0)
r[16,1,0]                                          54 	(obj:0)
r[16,0,1]                                     21.6565 	(obj:0)
r[16,1,1]                                     50.0988 	(obj:0)
r[16,0,2]                                  17.5171445 	(obj:0)
r[16,1,2]                                 46.29239916 	(obj:0)
r[16,0,3]                               13.5723387085 	(obj:0)
r[16,1,3]                             42.578493860412 	(obj:0)
r[16,0,4]                            9.81293878920049 	(obj:0)
r[16,1,4]                             38.954836459604 	(obj:0)
r[16,0,5]                            6.23023066610807 	(obj:0)
r[16,1,5]                            29.2118653406247 	(obj:0)
r[16,0,6]                            2.81590982480099 	(obj:0)
r[16,1,6]                            25.9130170128475 	(obj:0)
r[16,1,7]                            22.6943306994353 	(obj:0)
r[16,1,8]                            19.5538584634391 	(obj:0)
r[16,1,9]                            16.4896997027775 	(obj:0)
r[17,0,0]                                          26 	(obj:0)
r[17,1,0]                                          54 	(obj:0)
r[17,0,1]                                     21.6565 	(obj:0)
r[17,1,1]                                     50.0988 	(obj:0)
r[17,0,2]                                  17.5171445 	(obj:0)
r[17,1,2]                                 46.29239916 	(obj:0)
r[17,0,3]                               13.5723387085 	(obj:0)
r[17,1,3]                             42.578493860412 	(obj:0)
r[17,0,4]                            9.81293878920049 	(obj:0)
r[17,1,4]                             38.954836459604 	(obj:0)
r[17,0,5]                            6.23023066610807 	(obj:0)
r[17,1,5]                            29.2118653406247 	(obj:0)
r[17,0,6]                            2.81590982480099 	(obj:0)
r[17,1,6]                            25.9130170128475 	(obj:0)
r[17,1,7]                            22.6943306994353 	(obj:0)
r[17,1,8]                            19.5538584634391 	(obj:0)
r[17,1,9]                            16.4896997027775 	(obj:0)
r[18,0,0]                                          26 	(obj:0)
r[18,1,0]                                          54 	(obj:0)
r[18,0,1]                                     21.6565 	(obj:0)
r[18,1,1]                                     50.0988 	(obj:0)
r[18,0,2]                                  17.5171445 	(obj:0)
r[18,1,2]                                 46.29239916 	(obj:0)
r[18,0,3]                               13.5723387085 	(obj:0)
r[18,1,3]                             42.578493860412 	(obj:0)
r[18,0,4]                            9.81293878920049 	(obj:0)
r[18,1,4]                             38.954836459604 	(obj:0)
r[18,0,5]                            6.23023066610807 	(obj:0)
r[18,1,5]                            29.2118653406247 	(obj:0)
r[18,0,6]                            2.81590982480099 	(obj:0)
r[18,1,6]                            25.9130170128475 	(obj:0)
r[18,1,7]                            22.6943306994353 	(obj:0)
r[18,1,8]                            19.5538584634391 	(obj:0)
r[18,1,9]                            16.4896997027775 	(obj:0)
r[19,0,0]                                          26 	(obj:0)
r[19,1,0]                                          54 	(obj:0)
r[19,0,1]                                     21.6565 	(obj:0)
r[19,1,1]                                     50.0988 	(obj:0)
r[19,0,2]                                  17.5171445 	(obj:0)
r[19,1,2]                                 46.29239916 	(obj:0)
r[19,0,3]                               13.5723387085 	(obj:0)
r[19,1,3]                             42.578493860412 	(obj:0)
r[19,0,4]                            9.81293878920049 	(obj:0)
r[19,1,4]                             38.954836459604 	(obj:0)
r[19,0,5]                            6.23023066610807 	(obj:0)
r[19,1,5]                            29.2118653406247 	(obj:0)
r[19,0,6]                            2.81590982480099 	(obj:0)
r[19,1,6]                            25.9130170128475 	(obj:0)
r[19,1,7]                            22.6943306994353 	(obj:0)
r[19,1,8]                            19.5538584634391 	(obj:0)
r[19,1,9]                            16.4896997027775 	(obj:0)
y[0,1]                                           1.09 	(obj:0)
y[0,2]                                           1.09 	(obj:0)
y[0,3]                                           1.09 	(obj:0)
y[0,4]                                           1.09 	(obj:0)
y[0,5]                                           1.09 	(obj:0)
y[0,6]                                           1.09 	(obj:0)
y[0,7]                                           1.09 	(obj:0)
y[0,8]                                           1.09 	(obj:0)
y[0,9]                                           1.09 	(obj:0)
y[0,10]                                          1.09 	(obj:0)
y[1,1]                                           1.09 	(obj:0)
y[1,2]                                           1.09 	(obj:0)
y[1,3]                                           1.09 	(obj:0)
y[1,4]                                           1.09 	(obj:0)
y[1,5]                                           1.09 	(obj:0)
y[1,6]                                           1.09 	(obj:0)
y[1,7]                                           1.09 	(obj:0)
y[1,8]                                           1.09 	(obj:0)
y[1,9]                                           1.09 	(obj:0)
y[1,10]                                          1.09 	(obj:0)
y[2,1]                                           1.09 	(obj:0)
y[2,2]                                           1.09 	(obj:0)
y[2,3]                                           1.09 	(obj:0)
y[2,4]                                           1.09 	(obj:0)
y[2,5]                                           1.09 	(obj:0)
y[2,6]                                           1.09 	(obj:0)
y[2,7]                                           1.09 	(obj:0)
y[2,8]                                           1.09 	(obj:0)
y[2,9]                                           1.09 	(obj:0)
y[2,10]                                          1.09 	(obj:0)
y[3,1]                                           1.09 	(obj:0)
y[3,2]                                           1.09 	(obj:0)
y[3,3]                                           1.09 	(obj:0)
y[3,4]                                           1.09 	(obj:0)
y[3,5]                                           1.09 	(obj:0)
y[3,6]                                           1.09 	(obj:0)
y[3,7]                                           1.09 	(obj:0)
y[3,8]                                           1.09 	(obj:0)
y[3,9]                                           1.09 	(obj:0)
y[3,10]                                          1.09 	(obj:0)
y[4,1]                                           1.09 	(obj:0)
y[4,2]                                           1.09 	(obj:0)
y[4,3]                                           1.09 	(obj:0)
y[4,4]                                           1.09 	(obj:0)
y[4,5]                                           1.09 	(obj:0)
y[4,6]                                           1.09 	(obj:0)
y[4,7]                                           1.09 	(obj:0)
y[4,8]                                           1.09 	(obj:0)
y[4,9]                                           1.09 	(obj:0)
y[4,10]                                          1.09 	(obj:0)
y[5,1]                                           1.09 	(obj:0)
y[5,2]                                           1.09 	(obj:0)
y[5,3]                                           1.09 	(obj:0)
y[5,4]                                           1.09 	(obj:0)
y[5,5]                                           1.09 	(obj:0)
y[5,6]                                           1.09 	(obj:0)
y[5,7]                                           1.09 	(obj:0)
y[5,8]                                           1.09 	(obj:0)
y[5,9]                                           1.09 	(obj:0)
y[5,10]                                          1.09 	(obj:0)
y[6,1]                                           1.09 	(obj:0)
y[6,2]                                           1.09 	(obj:0)
y[6,3]                                           1.09 	(obj:0)
y[6,4]                                           1.09 	(obj:0)
y[6,5]                                           1.09 	(obj:0)
y[6,6]                                           1.09 	(obj:0)
y[6,7]                                           1.09 	(obj:0)
y[6,8]                                           1.09 	(obj:0)
y[6,9]                                           1.09 	(obj:0)
y[6,10]                                          1.09 	(obj:0)
y[7,1]                                           1.09 	(obj:0)
y[7,2]                                           1.09 	(obj:0)
y[7,3]                                           1.09 	(obj:0)
y[7,4]                                           1.09 	(obj:0)
y[7,5]                                           1.09 	(obj:0)
y[7,6]                                           1.09 	(obj:0)
y[7,7]                                           1.09 	(obj:0)
y[7,8]                                           1.09 	(obj:0)
y[7,9]                                           1.09 	(obj:0)
y[7,10]                                          1.09 	(obj:0)
y[8,1]                                           1.09 	(obj:0)
y[8,2]                                           1.09 	(obj:0)
y[8,3]                                           1.09 	(obj:0)
y[8,4]                                           1.09 	(obj:0)
y[8,5]                                           1.09 	(obj:0)
y[8,6]                                           1.09 	(obj:0)
y[8,7]                                           1.09 	(obj:0)
y[8,8]                                           1.09 	(obj:0)
y[8,9]                                           1.09 	(obj:0)
y[8,10]                                          1.09 	(obj:0)
y[9,1]                                           1.09 	(obj:0)
y[9,2]                                           1.09 	(obj:0)
y[9,3]                                           1.09 	(obj:0)
y[9,4]                                           1.09 	(obj:0)
y[9,5]                                           1.09 	(obj:0)
y[9,6]                                           1.09 	(obj:0)
y[9,7]                                           1.09 	(obj:0)
y[9,8]                                           1.09 	(obj:0)
y[9,9]                                           1.09 	(obj:0)
y[9,10]                                          1.09 	(obj:0)
y[11,1]                           0.00999999999999979 	(obj:0)
y[11,3]                                           1.5 	(obj:0)
y[11,5]                                          0.84 	(obj:0)
y[11,6]                                           1.5 	(obj:0)
y[11,9]                                           1.5 	(obj:0)
y[11,10]                                         0.51 	(obj:0)
y[12,3]                                          0.52 	(obj:0)
y[12,6]                             0.449999999999999 	(obj:0)
y[12,9]                             0.539999999999999 	(obj:0)
r[0,0,0]                                           97 	(obj:0)
r[0,1,0]                                           59 	(obj:0)
r[0,0,1]                                     93.00511 	(obj:0)
r[0,1,1]                                     56.67616 	(obj:0)
r[0,0,2]                                 89.081329042 	(obj:0)
r[0,1,2]                                   54.3697488 	(obj:0)
r[0,0,3]                             85.2273913850524 	(obj:0)
r[0,1,3]                                 52.080635684 	(obj:0)
r[0,0,4]                             81.4420538183985 	(obj:0)
r[0,1,4]                               49.80869091637 	(obj:0)
r[0,0,5]                             33.1959331126523 	(obj:0)
r[0,1,5]                             24.9379023729957 	(obj:0)
r[0,0,6]                             30.3367555032471 	(obj:0)
r[0,1,6]                             22.8695281051982 	(obj:0)
r[0,0,7]                             27.5284712552893 	(obj:0)
r[0,1,7]                             20.8166666444092 	(obj:0)
r[0,0,8]                             24.7701744669451 	(obj:0)
r[0,1,8]                             18.7792016445761 	(obj:0)
r[0,0,9]                             22.0609753614335 	(obj:0)
r[0,1,9]                             16.7570176322418 	(obj:0)
r[0,0,10]                                        19.4 	(obj:0)
r[0,1,10]                                       14.75 	(obj:0)
r[1,0,0]                                           97 	(obj:0)
r[1,1,0]                                           59 	(obj:0)
r[1,0,1]                                     93.00511 	(obj:0)
r[1,1,1]                                     56.67616 	(obj:0)
r[1,0,2]                                 89.081329042 	(obj:0)
r[1,1,2]                                   54.3697488 	(obj:0)
r[1,0,3]                             85.2273913850524 	(obj:0)
r[1,1,3]                                 52.080635684 	(obj:0)
r[1,0,4]                             81.4420538183985 	(obj:0)
r[1,1,4]                               49.80869091637 	(obj:0)
r[1,0,5]                             33.1959331126523 	(obj:0)
r[1,1,5]                             24.9379023729957 	(obj:0)
r[1,0,6]                             30.3367555032471 	(obj:0)
r[1,1,6]                             22.8695281051982 	(obj:0)
r[1,0,7]                             27.5284712552893 	(obj:0)
r[1,1,7]                             20.8166666444092 	(obj:0)
r[1,0,8]                             24.7701744669451 	(obj:0)
r[1,1,8]                             18.7792016445761 	(obj:0)
r[1,0,9]                             22.0609753614335 	(obj:0)
r[1,1,9]                             16.7570176322418 	(obj:0)
r[1,0,10]                                        19.4 	(obj:0)
r[1,1,10]                                       14.75 	(obj:0)
r[2,0,0]                                           97 	(obj:0)
r[2,1,0]                                           59 	(obj:0)
r[2,0,1]                                     93.00511 	(obj:0)
r[2,1,1]                                     56.67616 	(obj:0)
r[2,0,2]                                 89.081329042 	(obj:0)
r[2,1,2]                                   54.3697488 	(obj:0)
r[2,0,3]                             85.2273913850524 	(obj:0)
r[2,1,3]                                 52.080635684 	(obj:0)
r[2,0,4]                             81.4420538183985 	(obj:0)
r[2,1,4]                               49.80869091637 	(obj:0)
r[2,0,5]                             33.1959331126523 	(obj:0)
r[2,1,5]                             24.9379023729957 	(obj:0)
r[2,0,6]                             30.3367555032471 	(obj:0)
r[2,1,6]                             22.8695281051982 	(obj:0)
r[2,0,7]                             27.5284712552893 	(obj:0)
r[2,1,7]                             20.8166666444092 	(obj:0)
r[2,0,8]                             24.7701744669451 	(obj:0)
r[2,1,8]                             18.7792016445761 	(obj:0)
r[2,0,9]                             22.0609753614335 	(obj:0)
r[2,1,9]                             16.7570176322418 	(obj:0)
r[2,0,10]                                        19.4 	(obj:0)
r[2,1,10]                                       14.75 	(obj:0)
r[3,0,0]                                           97 	(obj:0)
r[3,1,0]                                           59 	(obj:0)
r[3,0,1]                                     93.00511 	(obj:0)
r[3,1,1]                                     56.67616 	(obj:0)
r[3,0,2]                                 89.081329042 	(obj:0)
r[3,1,2]                                   54.3697488 	(obj:0)
r[3,0,3]                             85.2273913850524 	(obj:0)
r[3,1,3]                                 52.080635684 	(obj:0)
r[3,0,4]                             81.4420538183985 	(obj:0)
r[3,1,4]                               49.80869091637 	(obj:0)
r[3,0,5]                             33.1959331126523 	(obj:0)
r[3,1,5]                             24.9379023729957 	(obj:0)
r[3,0,6]                             30.3367555032471 	(obj:0)
r[3,1,6]                             22.8695281051982 	(obj:0)
r[3,0,7]                             27.5284712552893 	(obj:0)
r[3,1,7]                             20.8166666444092 	(obj:0)
r[3,0,8]                             24.7701744669451 	(obj:0)
r[3,1,8]                             18.7792016445761 	(obj:0)
r[3,0,9]                             22.0609753614335 	(obj:0)
r[3,1,9]                             16.7570176322418 	(obj:0)
r[3,0,10]                                        19.4 	(obj:0)
r[3,1,10]                                       14.75 	(obj:0)
r[4,0,0]                                           97 	(obj:0)
r[4,1,0]                                           59 	(obj:0)
r[4,0,1]                                     93.00511 	(obj:0)
r[4,1,1]                                     56.67616 	(obj:0)
r[4,0,2]                                 89.081329042 	(obj:0)
r[4,1,2]                                   54.3697488 	(obj:0)
r[4,0,3]                             85.2273913850524 	(obj:0)
r[4,1,3]                                 52.080635684 	(obj:0)
r[4,0,4]                             81.4420538183985 	(obj:0)
r[4,1,4]                               49.80869091637 	(obj:0)
r[4,0,5]                             33.1959331126523 	(obj:0)
r[4,1,5]                             24.9379023729957 	(obj:0)
r[4,0,6]                             30.3367555032471 	(obj:0)
r[4,1,6]                             22.8695281051982 	(obj:0)
r[4,0,7]                             27.5284712552893 	(obj:0)
r[4,1,7]                             20.8166666444092 	(obj:0)
r[4,0,8]                             24.7701744669451 	(obj:0)
r[4,1,8]                             18.7792016445761 	(obj:0)
r[4,0,9]                             22.0609753614335 	(obj:0)
r[4,1,9]                             16.7570176322418 	(obj:0)
r[4,0,10]                                        19.4 	(obj:0)
r[4,1,10]                                       14.75 	(obj:0)
r[5,0,0]                                           97 	(obj:0)
r[5,1,0]                                           59 	(obj:0)
r[5,0,1]                                     93.00511 	(obj:0)
r[5,1,1]                                     56.67616 	(obj:0)
r[5,0,2]                                 89.081329042 	(obj:0)
r[5,1,2]                                   54.3697488 	(obj:0)
r[5,0,3]                             85.2273913850524 	(obj:0)
r[5,1,3]                                 52.080635684 	(obj:0)
r[5,0,4]                             81.4420538183985 	(obj:0)
r[5,1,4]                               49.80869091637 	(obj:0)
r[5,0,5]                             33.1959331126523 	(obj:0)
r[5,1,5]                             24.9379023729957 	(obj:0)
r[5,0,6]                             30.3367555032471 	(obj:0)
r[5,1,6]                             22.8695281051982 	(obj:0)
r[5,0,7]                             27.5284712552893 	(obj:0)
r[5,1,7]                             20.8166666444092 	(obj:0)
r[5,0,8]                             24.7701744669451 	(obj:0)
r[5,1,8]                             18.7792016445761 	(obj:0)
r[5,0,9]                             22.0609753614335 	(obj:0)
r[5,1,9]                             16.7570176322418 	(obj:0)
r[5,0,10]                                        19.4 	(obj:0)
r[5,1,10]                                       14.75 	(obj:0)
r[6,0,0]                                           97 	(obj:0)
r[6,1,0]                                           59 	(obj:0)
r[6,0,1]                                     93.00511 	(obj:0)
r[6,1,1]                                     56.67616 	(obj:0)
r[6,0,2]                                 89.081329042 	(obj:0)
r[6,1,2]                                   54.3697488 	(obj:0)
r[6,0,3]                             85.2273913850524 	(obj:0)
r[6,1,3]                                 52.080635684 	(obj:0)
r[6,0,4]                             81.4420538183985 	(obj:0)
r[6,1,4]                               49.80869091637 	(obj:0)
r[6,0,5]                             33.1959331126523 	(obj:0)
r[6,1,5]                             24.9379023729957 	(obj:0)
r[6,0,6]                             30.3367555032471 	(obj:0)
r[6,1,6]                             22.8695281051982 	(obj:0)
r[6,0,7]                             27.5284712552893 	(obj:0)
r[6,1,7]                             20.8166666444092 	(obj:0)
r[6,0,8]                             24.7701744669451 	(obj:0)
r[6,1,8]                             18.7792016445761 	(obj:0)
r[6,0,9]                             22.0609753614335 	(obj:0)
r[6,1,9]                             16.7570176322418 	(obj:0)
r[6,0,10]                                        19.4 	(obj:0)
r[6,1,10]                                       14.75 	(obj:0)
r[7,0,0]                                           97 	(obj:0)
r[7,1,0]                                           59 	(obj:0)
r[7,0,1]                                     93.00511 	(obj:0)
r[7,1,1]                                     56.67616 	(obj:0)
r[7,0,2]                                 89.081329042 	(obj:0)
r[7,1,2]                                   54.3697488 	(obj:0)
r[7,0,3]                             85.2273913850524 	(obj:0)
r[7,1,3]                                 52.080635684 	(obj:0)
r[7,0,4]                             81.4420538183985 	(obj:0)
r[7,1,4]                               49.80869091637 	(obj:0)
r[7,0,5]                             33.1959331126523 	(obj:0)
r[7,1,5]                             24.9379023729957 	(obj:0)
r[7,0,6]                             30.3367555032471 	(obj:0)
r[7,1,6]                             22.8695281051982 	(obj:0)
r[7,0,7]                             27.5284712552893 	(obj:0)
r[7,1,7]                             20.8166666444092 	(obj:0)
r[7,0,8]                             24.7701744669451 	(obj:0)
r[7,1,8]                             18.7792016445761 	(obj:0)
r[7,0,9]                             22.0609753614335 	(obj:0)
r[7,1,9]                             16.7570176322418 	(obj:0)
r[7,0,10]                                        19.4 	(obj:0)
r[7,1,10]                                       14.75 	(obj:0)
r[8,0,0]                                           97 	(obj:0)
r[8,1,0]                                           59 	(obj:0)
r[8,0,1]                                     93.00511 	(obj:0)
r[8,1,1]                                     56.67616 	(obj:0)
r[8,0,2]                                 89.081329042 	(obj:0)
r[8,1,2]                                   54.3697488 	(obj:0)
r[8,0,3]                             85.2273913850524 	(obj:0)
r[8,1,3]                                 52.080635684 	(obj:0)
r[8,0,4]                             81.4420538183985 	(obj:0)
r[8,1,4]                               49.80869091637 	(obj:0)
r[8,0,5]                             33.1959331126523 	(obj:0)
r[8,1,5]                             24.9379023729957 	(obj:0)
r[8,0,6]                             30.3367555032471 	(obj:0)
r[8,1,6]                             22.8695281051982 	(obj:0)
r[8,0,7]                             27.5284712552893 	(obj:0)
r[8,1,7]                             20.8166666444092 	(obj:0)
r[8,0,8]                             24.7701744669451 	(obj:0)
r[8,1,8]                             18.7792016445761 	(obj:0)
r[8,0,9]                             22.0609753614335 	(obj:0)
r[8,1,9]                             16.7570176322418 	(obj:0)
r[8,0,10]                                        19.4 	(obj:0)
r[8,1,10]                                       14.75 	(obj:0)
r[9,0,0]                                           97 	(obj:0)
r[9,1,0]                                           59 	(obj:0)
r[9,0,1]                                     93.00511 	(obj:0)
r[9,1,1]                                     56.67616 	(obj:0)
r[9,0,2]                                 89.081329042 	(obj:0)
r[9,1,2]                                   54.3697488 	(obj:0)
r[9,0,3]                             85.2273913850524 	(obj:0)
r[9,1,3]                                 52.080635684 	(obj:0)
r[9,0,4]                             81.4420538183985 	(obj:0)
r[9,1,4]                               49.80869091637 	(obj:0)
r[9,0,5]                             33.1959331126523 	(obj:0)
r[9,1,5]                             24.9379023729957 	(obj:0)
r[9,0,6]                             30.3367555032471 	(obj:0)
r[9,1,6]                             22.8695281051982 	(obj:0)
r[9,0,7]                             27.5284712552893 	(obj:0)
r[9,1,7]                             20.8166666444092 	(obj:0)
r[9,0,8]                             24.7701744669451 	(obj:0)
r[9,1,8]                             18.7792016445761 	(obj:0)
r[9,0,9]                             22.0609753614335 	(obj:0)
r[9,1,9]                             16.7570176322418 	(obj:0)
r[9,0,10]                                        19.4 	(obj:0)
r[9,1,10]                                       14.75 	(obj:0)
r[10,0,0]                                          26 	(obj:0)
r[10,1,0]                                          54 	(obj:0)
r[10,0,1]                                     21.6565 	(obj:0)
r[10,1,1]                                     50.0988 	(obj:0)
r[10,0,2]                                  17.5171445 	(obj:0)
r[10,1,2]                                 46.29239916 	(obj:0)
r[10,0,3]                               13.5723387085 	(obj:0)
r[10,1,3]                             42.578493860412 	(obj:0)
r[10,0,4]                            9.81293878920049 	(obj:0)
r[10,1,4]                             38.954836459604 	(obj:0)
r[10,0,5]                            6.23023066610807 	(obj:0)
r[10,1,5]                            29.2118653406247 	(obj:0)
r[10,0,6]                            4.99483963106393 	(obj:0)
r[10,1,6]                            25.9130170128475 	(obj:0)
r[10,1,7]                            22.6943306994353 	(obj:0)
r[10,0,8]                            1.81830022163276 	(obj:0)
r[10,1,8]                            19.5538584634391 	(obj:0)
r[10,0,9]                            1.94842541884973 	(obj:0)
r[10,1,9]                            16.4896997027775 	(obj:0)
r[11,0,0]                                          26 	(obj:0)
r[11,1,0]                                          54 	(obj:0)
r[11,0,1]                            21.7581126762105 	(obj:0)
r[11,1,1]                                     50.0988 	(obj:0)
r[11,0,2]                            20.7354813804286 	(obj:0)
r[11,1,2]                                 46.29239916 	(obj:0)
r[11,0,3]                            16.6394137555485 	(obj:0)
r[11,1,3]                             42.578493860412 	(obj:0)
r[11,0,4]                            15.8573613090377 	(obj:0)
r[11,1,4]                             38.954836459604 	(obj:0)
r[11,0,5]                            13.3640253275129 	(obj:0)
r[11,1,5]                            29.2118653406247 	(obj:0)
r[11,0,6]                             9.6144161371198 	(obj:0)
r[11,1,6]                            25.9130170128475 	(obj:0)
r[11,0,7]                            9.16253857867517 	(obj:0)
r[11,1,7]                            22.6943306994353 	(obj:0)
r[11,0,8]                            8.73189926547744 	(obj:0)
r[11,1,8]                            19.5538584634391 	(obj:0)
